VER
4

OBJSENSE
MIN

QCECONES
1 2
2
4 4
1


VAR
12 1
F 12

CON
160 4
@0:SVECQCE 137
SVECQE 12
SVECPSD 10
L= 1

OBJACOORD
2
0 1.0
1 1.0

ACOORD
30
0 0 1.0
1 2 1.0
11 3 1.0
15 4 1.0
37 5 1.0
41 6 1.0
45 7 1.0
79 8 1.0
83 9 1.0
87 10 1.0
91 11 1.0
137 1 1.0
139 2 1.0
139 4 1.0
139 7 1.0
139 11 1.0
149 2 1.0
150 3 1.0
151 4 1.0
152 5 1.0
153 6 1.0
154 7 1.0
155 8 1.0
156 9 1.0
157 10 1.0
158 11 1.0
159 2 1.0
159 4 1.0
159 7 1.0
159 11 1.0

BCOORD
2
138 -1.0
159 1.0
